(set-info :status sat) ; swine result
(set-logic ALL)
(declare-fun i1 () Int)
(declare-fun it5 () Int)
(declare-fun it6 () Int)
(declare-fun i2 () Int)
(declare-fun i3 () Int)
(declare-fun it7 () Int)
(declare-fun it8 () Int)
(declare-fun i4 () Int)
(declare-fun it9 () Int)
(declare-fun i5 () Int)
(declare-fun i6 () Int)
(declare-fun it10 () Int)
(declare-fun it11 () Int)
(declare-fun it12 () Int)
(declare-fun i8 () Int)
(declare-fun i9 () Int)
(declare-fun it13 () Int)
(declare-fun i10 () Int)
(declare-fun it14 () Int)
(declare-fun it147 () Int)
(declare-fun it2 () Int)
(declare-fun it4 () Int)
(declare-fun it151 () Int)
(declare-fun it152 () Int)
(declare-fun it153 () Int)
(declare-fun it154 () Int)
(declare-fun it155 () Int)
(declare-fun it156 () Int)
(declare-fun it157 () Int)
(declare-fun it158 () Int)
(declare-fun it159 () Int)
(declare-fun it160 () Int)
(declare-fun it167 () Int)
(declare-fun it168 () Int)
(declare-fun it169 () Int)
(declare-fun it170 () Int)
(declare-fun it171 () Int)
(declare-fun it172 () Int)
(declare-fun it173 () Int)
(declare-fun it174 () Int)
(declare-fun it175 () Int)
(declare-fun it176 () Int)
(declare-fun it215 () Int)
(declare-fun it216 () Int)
(declare-fun it217 () Int)
(declare-fun it218 () Int)
(declare-fun it219 () Int)
(declare-fun it220 () Int)
(declare-fun it221 () Int)
(declare-fun it222 () Int)
(declare-fun it223 () Int)
(declare-fun it224 () Int)
(declare-fun it227 () Int)
(declare-fun it228 () Int)
(declare-fun it229 () Int)
(declare-fun it230 () Int)
(declare-fun it231 () Int)
(declare-fun it163 () Int)
(declare-fun it232 () Int)
(declare-fun it233 () Int)
(declare-fun it234 () Int)
(declare-fun it235 () Int)
(declare-fun it236 () Int)
(declare-fun it241 () Int)
(declare-fun it242 () Int)
(declare-fun it243 () Int)
(declare-fun it244 () Int)
(declare-fun it245 () Int)
(declare-fun it246 () Int)
(declare-fun it247 () Int)
(declare-fun it248 () Int)
(declare-fun it249 () Int)
(declare-fun it250 () Int)
(declare-fun it277 () Int)
(declare-fun it278 () Int)
(declare-fun it279 () Int)
(declare-fun it280 () Int)
(declare-fun it281 () Int)
(declare-fun it282 () Int)
(declare-fun it283 () Int)
(declare-fun it284 () Int)
(declare-fun it285 () Int)
(declare-fun it286 () Int)
(declare-fun it289 () Int)
(declare-fun it290 () Int)
(declare-fun it291 () Int)
(declare-fun it162 () Int)
(declare-fun it292 () Int)
(declare-fun it293 () Int)
(declare-fun it294 () Int)
(declare-fun it295 () Int)
(declare-fun it296 () Int)
(declare-fun it297 () Int)
(declare-fun it298 () Int)
(assert (= (+ i1 (- 1)) 0))
(assert (= (+ it5 (- 13)) 0))
(assert (= (+ (* i2 (- 1)) it6 (- 12)) 0))
(assert (= (+ it7 (* i3 (- 1))) 0))
(assert (= (+ (* i4 (- 1)) it8) 0))
(assert (= (+ (* i5 (- 1)) it9) 0))
(assert (= (+ it10 (* i6 (- 1))) 0))
(assert (= (+ it11 (- 1)) 0))
(assert (= (+ (* i8 (- 1)) it12) 0))
(assert (= (+ it13 (* i9 (- 1))) 0))
(assert (= (+ it14 (* i10 (- 1))) 0))
(assert (let ((a!1 (* (* (+ 0 it11) (exp 2 (+ it147 (- 1)))) (+ 0 (- 1))))
      (a!3 (* (* (+ 0 it11) (exp 2 (+ it147 (- 1)))) (+ 0 (- 2))))
      (a!5 (>= (+ (+ it14 (* it11 (- 2))) (- 1)) 0)))
(let ((a!2 (+ a!1
              (+ 0 it14)
              (* (exp 2 (+ it147 (- 1))) (+ 0 (- 1)))
              (+ 0 1)))
      (a!4 (+ a!3 (+ 0 it14) (* (exp 2 (+ it147 (- 1))) (+ 0 (- 2))))))
  (and (> it14 0)
       (>= (+ (* it5 (- 1)) 13) 0)
       (>= a!2 (+ 0 0))
       (>= (+ it11 (- 1)) 0)
       (>= (+ (* it11 2) (- 1)) 0)
       (>= (+ a!4 (+ 0 1)) (+ 0 0))
       a!5
       (>= (+ it14 (* it11 (- 1))) 0)
       (>= (+ it5 (- 13)) 0)
       (> it4 0)
       (>= (+ it14 (* it11 (- 2))) 0)
       (>= (* it11 2) 0)
       (>= (+ a!4 (+ 0 2)) (+ 0 0))
       (>= (* it2 (- 1)) 0)
       (> (+ it11 1) 0)
       (>= (+ it147 (- 1)) 0)))))
(assert (= (+ it151 (* it5 (- 1))) 0))
(assert (= (+ (* it147 (- 14)) it152 (* it6 (- 1))) 0))
(assert (= (+ (* it4 (- 1)) it153) 0))
(assert (let ((a!1 (+ (+ 0 it154)
              (* (+ 0 it11) (exp 2 (+ it147 (- 1))) (+ 0 (- 2)))
              (* (exp 2 (+ it147 (- 1))) (+ 0 (- 2)))
              (+ 0 2))))
  (= a!1 (+ 0 0))))
(assert (let ((a!1 (+ (* (+ 0 it11) (exp 2 (+ it147 (- 1))) (+ 0 (- 2)))
              (+ 0 it155)
              (* (exp 2 (+ it147 (- 1))) (+ 0 (- 2)))
              (+ 0 1))))
  (= a!1 (+ 0 0))))
(assert (= (+ (* it2 (- 1)) it156) 0))
(assert (= (+ (* (exp 2 it147) (+ 0 (- 1)))
      (* (exp 2 it147) (+ 0 it11) (+ 0 (- 1)))
      (+ 0 it157)
      (+ 0 1))
   (+ 0 0)))
(assert (let ((a!1 (+ (* (+ 0 it11) (exp 2 (+ it147 (- 1))) (+ 0 (- 1)))
              (+ 0 it158)
              (* (exp 2 (+ it147 (- 1))) (+ 0 (- 1)))
              (+ 0 1))))
  (= a!1 (+ 0 0))))
(assert (let ((a!1 (+ (* (+ 0 it11) (exp 2 (+ it147 (- 1))) (+ 0 (- 2)))
              (+ 0 it159)
              (* (exp 2 (+ it147 (- 1))) (+ 0 (- 2)))
              (+ 0 1))))
  (= a!1 (+ 0 0))))
(assert (= (+ (* it14 (- 1)) it160) 0))
(assert (and (>= (+ it157 (- 1)) 0) (= (+ it151 (- 13)) 0) (> it160 0)))
(assert (= (+ it167 (- 14)) 0))
(assert (= (+ (* it152 (- 1)) it168 (- 1)) 0))
(assert (= (+ it169 (* it153 (- 1))) 0))
(assert (= (+ (* it154 (- 1)) it170) 0))
(assert (= (+ (* it155 (- 1)) it171) 0))
(assert (= (+ (* it156 (- 1)) it172) 0))
(assert (= (+ it173 (* it157 (- 1))) 0))
(assert (= (+ (* it158 (- 1)) it174) 0))
(assert (= (+ (* it159 (- 1)) it175) 0))
(assert (= (+ it176 (* it160 (- 1))) 0))
(assert (and (<= (+ (* it176 (- 1)) (* it173 2)) 0) (= (+ it167 (- 14)) 0)))
(assert (= (+ it215 (- 16)) 0))
(assert (= (+ it216 (* it168 (- 1)) (- 1)) 0))
(assert (= (+ (* it169 (- 1)) it217) 0))
(assert (= (+ it218 (* it173 (- 2))) 0))
(assert (= (+ (* it173 (- 2)) it219 (- 1)) 0))
(assert (= (+ it220 (* it172 (- 1))) 0))
(assert (= (+ it221 (* it173 (- 1))) 0))
(assert (= (+ it222 (* it174 (- 1))) 0))
(assert (= (+ it223 (* it175 (- 1))) 0))
(assert (= (+ it224 (* it176 (- 1))) 0))
(assert (and (= (+ it215 (- 16)) 0)
     (>= (+ it218 (- 1)) 0)
     (<= (+ (* it224 (- 1)) it218) 0)))
(assert (= (+ it227 (- 20)) 0))
(assert (= (+ (* it216 (- 1)) it228 (- 3)) 0))
(assert (= (+ (* it217 (- 1)) it229) 0))
(assert (= (+ (* it218 (- 1)) it230) 0))
(assert (= (+ it231 (* it219 (- 1))) 0))
(assert (= (+ it232 (* it163 (- 1))) 0))
(assert (= (+ it233 (* it221 (- 1))) 0))
(assert (= (+ it234 (* it222 (- 1))) 0))
(assert (= (+ it235 (* it223 (- 1))) 0))
(assert (= (+ (* it224 (- 1)) it236) 0))
(assert (and (= (+ it227 (- 20)) 0) (<= it232 0)))
(assert (= (+ it241 (- 17)) 0))
(assert (= (+ (* it228 (- 1)) it242 (- 1)) 0))
(assert (= (+ it243 (* it229 (- 1))) 0))
(assert (= (+ (* it230 (- 1)) it244) 0))
(assert (= (+ (* it231 (- 1)) it245) 0))
(assert (= (+ it246 (* it232 (- 1))) 0))
(assert (= (+ (* it233 (- 1)) it247) 0))
(assert (= (+ (* it233 (- 1)) it248) 0))
(assert (= (+ it249 (* it235 (- 1))) 0))
(assert (= (+ it250 (* it236 (- 1))) 0))
(assert (and (= (+ it241 (- 17)) 0) (<= (+ (* it250 (- 1)) it245) 0)))
(assert (= (+ it277 (- 21)) 0))
(assert (= (+ it278 (* it242 (- 1)) (- 1)) 0))
(assert (= (+ it279 (* it243 (- 1))) 0))
(assert (= (+ it280 (* it244 (- 1))) 0))
(assert (= (+ it281 (* it245 (- 1))) 0))
(assert (= (+ it282 (* it246 (- 1))) 0))
(assert (= (+ it283 (* it247 (- 1))) 0))
(assert (= (+ it284 (* it248 (- 1))) 0))
(assert (= (+ (* it249 (- 1)) it285) 0))
(assert (= (+ (* it250 (- 1)) it286) 0))
(assert (and (= (+ it277 (- 21)) 0)
     (<= (+ (* it286 (- 1)) it281) 0)
     (>= (+ it281 (- 1)) 0)))
(assert (= (+ it289 (- 25)) 0))
(assert (= (+ it290 (* it278 (- 1)) (- 3)) 0))
(assert (= (+ (* it162 (- 1)) it291) 0))
(assert (= (+ it292 (* it280 (- 1))) 0))
(assert (= (+ it293 (* it281 (- 1))) 0))
(assert (= (+ (* it282 (- 1)) it294) 0))
(assert (= (+ it295 (* it283 (- 1))) 0))
(assert (= (+ it296 (* it284 (- 1))) 0))
(assert (= (+ it297 (* it285 (- 1))) 0))
(assert (= (+ it298 (* it286 (- 1))) 0))
(check-sat)
